============================[ Problem Statistics ]=============================|                                                                             ||  Number of variables:          4242                                         ||  Number of clauses:            9720                                         ||  Parse time:                   0.12 s                                       ||                                                                             |============================[ Search Statistics ]==============================| Conflicts |          ORIGINAL         |          LEARNT          | Progress ||           |    Vars  Clauses Literals |    Limit  Clauses Lit/Cl |          |==============================================================================================================================================================restarts              : 1conflicts             : 75             (381 /sec)decisions             : 162            (0.00 % random) (822 /sec)propagations          : 8195           (41599 /sec)conflict literals     : 3729           (95.96 % deleted)CPU time              : 0.197 sSATISFIABLE